1179.0 13157.0 2881.0 
1243.0 13076.0 2820.0 
1179.0 13074.0 2901.0 
1229.0 13080.0 2791.0 
1184.0 13002.0 3024.0 
1184.0 13002.0 3024.0 
1138.0 13312.0 3282.0 
1178.0 13083.0 3366.0 
1138.0 13309.0 3317.0 
1160.0 13210.0 3198.0 
1179.0 13024.0 2985.0 
1160.0 13220.0 3144.0 
1143.0 13409.0 3160.0 
1171.0 13173.0 3161.0 
1249.0 13129.0 2781.0 
1216.0 13196.0 2848.0 
1171.0 13173.0 3161.0 
1179.0 13074.0 2901.0 
1161.0 13110.0 3297.0 
1218.0 12979.0 2836.0 
1216.0 13196.0 2848.0 
1179.0 13011.0 3294.0 
1197.0 13085.0 2877.0 
1138.0 13312.0 3282.0 
1151.0 13215.0 3203.0 
1186.0 12984.0 2933.0 
1270.0 13119.0 2771.0 
1138.0 13321.0 3218.0 
1217.0 13142.0 2853.0 
